167 7 139 173 157 158 159 21 15 22 10 20 13 24 29 57 59 58 63 64 60 31 28 25 134 149 154 152 153 155 156 137 138 14 23 16 17 18 19 140 141 161 162 143 142 172 174 175 171 77 72 76 73 67 80 85 84 83 106 105 108 79 107 128 81 82 102 160 168 170 169 74 135 136 38 177